outputs/case_66.model.txt
report_content_truthful = True
internal_handling_established = True
explanation_document_compliant = True
internal_handling_system_established = True
violate_148_3_2 = False
public_explanation_made = True
internal_control_and_audit_established = True
reported_to_authority_on_time = True
explanation_document_provided = True
violate_148_1_1_or_2 = False
internal_control_executed = True
internal_handling_executed = True
violate_148_2_2 = False
penalty = False
violate_148_2_1 = False
violate_148_1_2 = False
internal_control_established = True
violate_148_3_1 = False
explanation_document_truthful = True